N = 44;
MinK = 5;
Capacity = 100;

X = array1d(0..44, [53, 34, 2, 40, 88, 74, 82, 0, 84, 11, 42, 90, 85, 9, 4, 3, 90, 41, 10, 96, 48, 87, 79, 39, 0, 89, 91, 3, 44, 89, 40, 42, 0, 97, 1, 45, 36, 4, 42, 42, 92, 75, 78, 77, 5]);
Y = array1d(0..44, [22, 28, 5, 85, 38, 20, 21, 46, 31, 12, 37, 44, 22, 8, 51, 10, 40, 33, 50, 45, 90, 31, 26, 32, 91, 45, 46, 53, 0, 41, 32, 86, 13, 45, 50, 94, 33, 15, 88, 29, 0, 26, 0, 29, 47]);

Demands = [1, 19, 19, 22, 20, 11, 2, 5, 20, 22, 2, 2, 11, 22, 19, 3, 1, 2, 16, 2, 13, 7, 8, 16, 14, 4, 14, 7, 20, 14, 7, 9, 7, 5, 10, 13, 25, 1, 22, 9, 3, 8, 10, 19];
